p tw 105 3921 50 
1 51 
1 52 
1 53 
1 54 
1 55 
1 56 
1 57 
2 50 
2 58 
2 59 
2 60 
2 61 
2 62 
2 63 
2 64 
3 50 
3 65 
3 66 
3 67 
3 68 
3 69 
3 70 
3 71 
4 50 
4 72 
4 73 
4 74 
4 75 
4 76 
4 77 
4 78 
5 50 
5 79 
5 80 
5 81 
5 82 
5 83 
5 84 
5 85 
6 50 
6 86 
6 87 
6 88 
6 89 
6 90 
6 91 
6 92 
7 50 
7 93 
7 94 
7 95 
7 96 
7 97 
7 98 
7 99 
8 51 
8 58 
8 65 
8 72 
8 79 
8 86 
8 93 
8 100 
9 52 
9 59 
9 66 
9 73 
9 80 
9 87 
9 94 
9 100 
10 53 
10 60 
10 67 
10 74 
10 81 
10 88 
10 95 
10 100 
11 54 
11 61 
11 68 
11 75 
11 82 
11 89 
11 96 
11 100 
12 55 
12 62 
12 69 
12 76 
12 83 
12 90 
12 97 
12 100 
13 56 
13 63 
13 70 
13 77 
13 84 
13 91 
13 98 
13 100 
14 57 
14 64 
14 71 
14 78 
14 85 
14 92 
14 99 
14 100 
15 51 
15 60 
15 68 
15 76 
15 84 
15 92 
15 94 
15 101 
16 57 
16 59 
16 65 
16 77 
16 82 
16 88 
16 97 
16 101 
17 52 
17 63 
17 67 
17 72 
17 85 
17 90 
17 96 
17 101 
18 53 
18 62 
18 71 
18 75 
18 79 
18 87 
18 98 
18 101 
19 54 
19 64 
19 70 
19 73 
19 83 
19 86 
19 95 
19 101 
20 55 
20 61 
20 66 
20 78 
20 81 
20 91 
20 93 
20 101 
21 56 
21 58 
21 69 
21 74 
21 80 
21 89 
21 99 
21 101 
22 51 
22 63 
22 71 
22 73 
22 81 
22 89 
22 97 
22 102 
23 56 
23 59 
23 68 
23 78 
23 79 
23 90 
23 95 
23 102 
24 57 
24 61 
24 67 
24 76 
24 80 
24 86 
24 98 
24 102 
25 52 
25 64 
25 69 
25 75 
25 84 
25 88 
25 93 
25 102 
26 53 
26 58 
26 66 
26 77 
26 83 
26 92 
26 96 
26 102 
27 54 
27 62 
27 65 
27 74 
27 85 
27 91 
27 94 
27 102 
28 55 
28 60 
28 70 
28 72 
28 82 
28 87 
28 99 
28 102 
29 51 
29 61 
29 69 
29 77 
29 85 
29 87 
29 95 
29 103 
30 55 
30 59 
30 71 
30 74 
30 84 
30 86 
30 96 
30 103 
31 56 
31 62 
31 67 
31 73 
31 82 
31 92 
31 93 
31 103 
32 57 
32 58 
32 70 
32 75 
32 81 
32 90 
32 94 
32 103 
33 52 
33 60 
33 65 
33 78 
33 83 
33 89 
33 98 
33 103 
34 53 
34 64 
34 68 
34 72 
34 80 
34 91 
34 97 
34 103 
35 54 
35 63 
35 66 
35 76 
35 79 
35 88 
35 99 
35 103 
36 51 
36 62 
36 70 
36 78 
36 80 
36 88 
36 96 
36 104 
37 54 
37 59 
37 69 
37 72 
37 81 
37 92 
37 98 
37 104 
38 55 
38 64 
38 67 
38 77 
38 79 
38 89 
38 94 
38 104 
39 56 
39 60 
39 66 
39 75 
39 85 
39 86 
39 97 
39 104 
40 57 
40 63 
40 68 
40 74 
40 83 
40 87 
40 93 
40 104 
41 52 
41 58 
41 71 
41 76 
41 82 
41 91 
41 95 
41 104 
42 53 
42 61 
42 65 
42 73 
42 84 
42 90 
42 99 
42 104 
43 51 
43 64 
43 66 
43 74 
43 82 
43 90 
43 98 
43 105 
44 53 
44 59 
44 70 
44 76 
44 85 
44 89 
44 93 
44 105 
45 54 
45 58 
45 67 
45 78 
45 84 
45 87 
45 97 
45 105 
46 55 
46 63 
46 65 
46 75 
46 80 
46 92 
46 95 
46 105 
47 56 
47 61 
47 71 
47 72 
47 83 
47 88 
47 94 
47 105 
48 57 
48 60 
48 69 
48 73 
48 79 
48 91 
48 96 
48 105 
49 52 
49 62 
49 68 
49 77 
49 81 
49 86 
49 99 
49 105 
